Traveling Salesman Problem/TSP_generados/Aleatorio1621103671_17.tsp
NAME: Aleatorio1621103671_17.tsp
COMMENT: Randomly generated scenario
TYPE: TSP
DIMENSION: 17
EDGE_WEIGHT_TYPE: ATT
NODE_COORD_SECTION
1 17.35 2.95
2 34.27 25.28
3 45.56 43.16
4 38.92 14.68
5 26.07 33.93
6 28.22 37.19
7 39.96 13.64
8 47.95 34.41
9 31.57 21.25
10 5.41 12.29
11 18.07 13.53
12 37.15 43.58
13 34.15 16.02
14 18.62 43.39
15 3.42 45.01
16 9.23 20.9
17 19.21 5.52
