Traveling Salesman Problem/TSP_generados/Aleatorio1621103671_17.opt.tour
NAME: Aleatorio1621103671_17.opt.tour
COMMENT: Optimal solution for Aleatorio1621103671_17 (175.5232831798223)
TYPE: TOUR
DIMENSION: 17
TOUR_SECTION
1 10 16 15 14 5 6 12 3 8 2 9 4 7 13 11 17
-1
EOF
